Sat 19 May 19:45:15 CEST 2018
CPXPARAM_TimeLimit                               45
CPXPARAM_Threads                                 1
CPXPARAM_MIP_Strategy_CallbackReducedLP          0
Tried aggregator 3 times.
MIP Presolve eliminated 11518 rows and 8818 columns.
MIP Presolve modified 11680 coefficients.
Aggregator did 21508 substitutions.
Reduced MIP has 34425 rows, 28643 columns, and 81510 nonzeros.
Reduced MIP has 26107 binaries, 14 generals, 0 SOSs, and 4750 indicators.
Presolve time = 0.49 sec. (1529.86 ticks)
Probing time = 0.27 sec. (161.45 ticks)
Tried aggregator 3 times.
Aggregator did 16324 substitutions.
Reduced MIP has 18101 rows, 12319 columns, and 48862 nonzeros.
Reduced MIP has 9783 binaries, 2536 generals, 0 SOSs, and 4750 indicators.
Presolve time = 0.11 sec. (168.26 ticks)
Probing time = 0.14 sec. (122.73 ticks)
Tried aggregator 1 time.
Reduced MIP has 18101 rows, 12319 columns, and 48862 nonzeros.
Reduced MIP has 9783 binaries, 2536 generals, 0 SOSs, and 4750 indicators.
Presolve time = 0.04 sec. (44.34 ticks)
Probing time = 0.01 sec. (9.42 ticks)
Clique table members: 861208.
MIP emphasis: balance optimality and feasibility.
MIP search method: dynamic search.
Parallel mode: none, using 1 thread.
Root relaxation solution time = 0.29 sec. (339.39 ticks)

        Nodes                                         Cuts/
   Node  Left     Objective  IInf  Best Integer    Best Bound    ItCnt     Gap

      0     0        0.0000  6180                      0.0000     2011         
      0     0        0.0000  5675               Cliques: 4625     2343         
      0     0        0.0000  5312               Cliques: 4625     2734         

Clique cuts applied:  9234

Root node processing (before b&c):
  Real time             =   45.00 sec. (52188.93 ticks)
Sequential b&c:
  Real time             =    0.00 sec. (0.00 ticks)
                          ------------
Total (root+branch&cut) =   45.00 sec. (52188.93 ticks)
